
(set-logic ALL) 

(declare-datatype MyList ((Nil) (Cons (head Real) (tail MyList)) )) 
(declare-fun l0 () MyList) 
(declare-fun l1 () MyList) 
(declare-fun l2 () MyList) 
(declare-fun l3 () MyList) 
(declare-fun i0 () Real) 
(declare-fun i1 () Real) 
(assert (= l3 l2) )
(assert (and (= l2 Nil) (is-Nil Nil) (= l2 l1)) )
(assert (is-Cons l3) )
(assert (is-Nil Nil) )
(assert (or (is-Cons Nil) (is-Nil Nil) (is-Nil Nil)) )
(assert (= l1 Nil) )
(assert (and (= l1 Nil) (= l0 Nil)) )
(assert (is-Cons Nil) )
(check-sat)
